NAME : mtspf.pid12836.gtsp.241592005.tour
COMMENT : Length = 241592005
COMMENT : Found by LKH [Keld Helsgaun] Sun Dec 22 20:55:06 2024
TYPE : TOUR
DIMENSION : 135
TOUR_SECTION
1
31
28
29
30
115
112
113
114
34
35
32
33
37
38
39
36
13
72
73
74
75
81
82
83
80
109
110
111
108
126
127
124
125
43
40
41
42
6
7
23
20
21
22
14
57
58
59
56
77
78
79
76
116
117
118
119
4
134
135
132
133
25
26
27
24
11
12
95
92
93
94
52
53
54
55
5
96
97
98
99
105
106
107
104
68
69
70
71
19
16
17
18
8
51
48
49
50
2
3
100
101
102
103
123
120
121
122
46
47
44
45
87
84
85
86
88
89
90
91
9
10
62
63
60
61
66
67
64
65
130
131
128
129
15
-1
EOF
